InboundTrucks  = 12;
OutboundTrucks = 8;
InboundDoors   = 4;
OutboundDoors  = 4;
ReleaseTime    = [3,5,3,3,1,1,5,3,0,3,3,3];
UnloadTime     = [21,36,30,26,27,35,40,39,44,40,36,26];
LoadTime       = [27,25,30,19,28,29,16,22];
TransferTime   = [| 0,0,40,41,27,12,21,50 | 0,12,34,0,10,0,23,22 | 17,32,0,24,0,0,25,29 | 32,22,29,0,31,39,0,32 | 13,0,22,34,35,0,46,32 | 32,0,20,0,45,0,32,17 | 22,47,30,10,15,42,34,46 | 30,0,28,20,26,48,41,29 | 18,45,0,45,39,18,38,0 | 0,0,32,38,39,48,18,0 | 41,16,0,46,20,50,10,13 | 15,41,0,10,0,22,43,15 |];
